Minimize
  obj: x0 + x1 + x2 + x3 + x4 + x5 + x6 + x7

Subject To
  c0: x2 + x3 + x5 = 28
  c1: x2 + x7 = 19
  c2: x3 + x4 + x5 + x6 = 33
  c3: x0 + x2 + x3 + x6 = 35
  c4: x1 + x5 + x6 = 20
  c5: x0 + x1 + x2 = 39

Bounds
  x0 >= 0
  x1 >= 0
  x2 >= 0
  x3 >= 0
  x4 >= 0
  x5 >= 0
  x6 >= 0
  x7 >= 0

Generals
  x0 x1 x2 x3 x4 x5 x6 x7

End
